(declare-fun bvlambda_2_ () (_ BitVec 1))
(declare-fun bvlambda_7_ () (_ BitVec 2))
(declare-fun a25 () (Array (_ BitVec 1) (_ BitVec 13)))
(assert
(let (($e1 (_ bv0 1)))
(let (($e7 (_ bv0 8)))
(let (($e10 (_ bv0 12)))
(let (($e27             (bvnot $e1) ))
(let (($e30 (select a25  $e27)))
(let (($e37 (concat        $e7  $e27       )))
(let (($e38 (concat $e37 $e27       )))
(let (($e39 (concat $e38 $e27       )))
(let (($e40 (concat $e39 bvlambda_7_)))
(let (($e42 (store a25 $e1 $e40)))
(let (($e43 (store $e42 bvlambda_2_ $e30)))
(let (($e44 (select $e43 true       )))
(let (($e59 (concat        $e10  $e27)))
                 (= $e44 $e59)
                                                                                                                                                                                              )              ))) ))))      )  )        )  )     ))
